g3 0 1 0	# problem d4n12R6R7d005d05
 12 12 1 0 6	# vars, constraints, objectives, ranges, eqns
 4 1	# nonlinear constraints, objectives
 0 0	# network constraints: nonlinear, linear
 12 12 12	# nonlinear vars in constraints, objectives, both
 0 0 0 1	# linear network variables; functions; arith, flags
 0 0 0 0 0	# discrete variables: binary, integer, nonlinear (b,c,o)
 108 12	# nonzeros in Jacobian, gradients
 0 0	# max name lengths: constraints, variables
 0 0 0 0 0	# common exprs: b,c,o,c1,o1
b
0 0.17 2.77
0 0.87 2.52
0 0.46 2.24
0 0.9 2.88
0 0.72 2.38
0 0.72 2.46
0 0.38 2.47
0 0.49 2.45
0 0.51 2.77
0 0.39 2.67
0 0.01 2.18
0 0.52 2.13
r
2 157.251
2 281.729
2 1662.44
2 177.754
4 38.048
4 41.05
4 38.428
4 42.232
4 30.756
4 8.586
2 85.847
2 84.234
C0
o54
6
o2
o2
n8.16
v3
v5
o2
o2
n8.96
v3
v7
o16
o2
o2
n8.47
v5
v7
o2
o2
n5.74
v7
v10
o2
o2
n0.28
v9
v9
o2
o2
n4.99
v9
v10
C1
o54
19
o2
o2
n6.19
v3
v5
o2
o2
n8.11
v3
v7
o2
o2
n4.03
v5
v7
o2
o2
n0.7
v7
v10
o2
o2
n7
v9
v9
o2
o2
n6.37
v9
v10
o2
o2
o2
n5.65
v0
v1
v2
o2
o2
o2
n1.37
v0
v2
v10
o2
o2
o2
n8.77
v0
v5
v5
o2
o2
o2
n6.33
v0
v5
v11
o2
o2
o2
n5.59
v0
v7
v10
o16
o2
o2
o2
n8.64
v0
v9
v10
o2
o2
o2
n0.5
v1
v3
v8
o2
o2
o2
n6.94
v1
v6
v7
o2
o2
o2
n5.38
v1
v7
v8
o2
o2
o2
n5.34
v2
v2
v7
o2
o2
o2
n0.15
v2
v9
v11
o2
o2
o2
n0.21
v6
v6
v11
o2
o2
o2
n6.59
v10
v10
v11
C2
o54
90
o2
o2
n9.57
v3
v5
o2
o2
n7.57
v3
v7
o2
o2
n1.92
v5
v7
o2
o2
n1.95
v7
v10
o2
o2
n5.87
v9
v9
o2
o2
n9.71
v9
v10
o2
o2
o2
n7.91
v0
v1
v2
o2
o2
o2
n5.38
v0
v2
v10
o2
o2
o2
n2.64
v0
v5
v5
o2
o2
o2
n5.18
v0
v5
v11
o2
o2
o2
n0.11
v0
v7
v10
o2
o2
o2
n5.81
v0
v9
v10
o2
o2
o2
n7.34
v1
v3
v8
o2
o2
o2
n0.69
v1
v6
v7
o2
o2
o2
n6.82
v1
v7
v8
o2
o2
o2
n8.89
v2
v2
v7
o16
o2
o2
o2
n9.8
v2
v9
v11
o2
o2
o2
n7.22
v6
v6
v11
o2
o2
o2
n7.19
v10
v10
v11
o2
o2
o2
o2
n0.62
v0
v0
v1
v11
o2
o2
o2
o2
n5.8
v0
v0
v7
v10
o2
o2
o2
o2
n1.29
v0
v1
v9
v9
o2
o2
o2
o2
n2.88
v0
v2
v2
v8
o16
o2
o2
o2
o2
n1.81
v0
v2
v3
v7
o2
o2
o2
o2
n6.69
v0
v2
v5
v9
o2
o2
o2
o2
n2.53
v0
v2
v7
v11
o2
o2
o2
o2
n5.85
v0
v2
v8
v8
o2
o2
o2
o2
n8.71
v0
v3
v3
v7
o2
o2
o2
o2
n5.44
v0
v3
v4
v7
o16
o2
o2
o2
o2
n7.44
v0
v3
v5
v5
o2
o2
o2
o2
n2.51
v0
v3
v6
v7
o2
o2
o2
o2
n9.96
v0
v4
v4
v11
o2
o2
o2
o2
n8.86
v0
v4
v10
v11
o2
o2
o2
o2
n9.44
v0
v6
v6
v6
o2
o2
o2
o2
n4.03
v0
v6
v7
v8
o2
o2
o2
o2
n9.71
v0
v7
v8
v11
o2
o2
o2
o2
n6.04
v0
v9
v9
v11
o16
o2
o2
o2
o2
n5.15
v1
v1
v1
v2
o2
o2
o2
o2
n2.99
v1
v1
v1
v8
o2
o2
o2
o2
n7.08
v1
v1
v2
v9
o2
o2
o2
o2
n3.1
v1
v2
v2
v2
o2
o2
o2
o2
n6.96
v1
v2
v4
v6
o16
o2
o2
o2
o2
n6.18
v1
v2
v6
v10
o2
o2
o2
o2
n1.78
v1
v2
v8
v11
o2
o2
o2
o2
n4.18
v1
v2
v9
v10
o2
o2
o2
o2
n1.79
v1
v3
v6
v8
o2
o2
o2
o2
n3.75
v1
v3
v8
v10
o2
o2
o2
o2
n6.06
v1
v3
v11
v11
o2
o2
o2
o2
n8.62
v1
v4
v4
v11
o2
o2
o2
o2
n6.12
v1
v5
v5
v10
o2
o2
o2
o2
n4.51
v1
v5
v6
v8
o2
o2
o2
o2
n2.87
v1
v5
v7
v7
o2
o2
o2
o2
n4.5
v1
v5
v11
v11
o16
o2
o2
o2
o2
n7.31
v1
v8
v11
v11
o2
o2
o2
o2
n7.58
v1
v9
v9
v11
o2
o2
o2
o2
n0.23
v2
v2
v3
v9
o16
o2
o2
o2
o2
n8.31
v2
v2
v9
v11
o2
o2
o2
o2
n1.14
v2
v3
v7
v7
o2
o2
o2
o2
n0.22
v2
v3
v7
v9
o2
o2
o2
o2
n1.95
v2
v5
v6
v9
o16
o2
o2
o2
o2
n0.97
v2
v5
v7
v7
o2
o2
o2
o2
n5.54
v3
v3
v3
v7
o2
o2
o2
o2
n1.92
v3
v3
v5
v11
o2
o2
o2
o2
n4.54
v3
v3
v6
v7
o2
o2
o2
o2
n0.02
v3
v3
v8
v10
o2
o2
o2
o2
n0.72
v3
v5
v5
v8
o2
o2
o2
o2
n4.77
v4
v4
v6
v7
o16
o2
o2
o2
o2
n0.31
v4
v4
v6
v8
o2
o2
o2
o2
n8.12
v4
v4
v7
v10
o2
o2
o2
o2
n5.38
v4
v4
v9
v9
o2
o2
o2
o2
n0.06
v4
v7
v7
v7
o2
o2
o2
o2
n6.87
v4
v9
v9
v9
o2
o2
o2
o2
n7.78
v4
v9
v11
v11
o2
o2
o2
o2
n9.3
v5
v5
v5
v7
o2
o2
o2
o2
n1.13
v5
v5
v11
v11
o2
o2
o2
o2
n2.73
v5
v6
v8
v11
o2
o2
o2
o2
n2.3
v5
v7
v7
v9
o16
o2
o2
o2
o2
n2.09
v5
v7
v8
v9
o2
o2
o2
o2
n2.45
v5
v8
v9
v10
o2
o2
o2
o2
n9.26
v5
v9
v9
v9
o2
o2
o2
o2
n3.06
v6
v7
v9
v9
o2
o2
o2
o2
n8.27
v6
v8
v8
v11
o2
o2
o2
o2
n5
v6
v8
v9
v11
o2
o2
o2
o2
n8.81
v7
v8
v8
v9
o2
o2
o2
o2
n2.93
v7
v8
v10
v10
o2
o2
o2
o2
n8.52
v7
v8
v10
v11
o16
o2
o2
o2
o2
n7.89
v7
v9
v10
v11
o2
o2
o2
o2
n9.17
v8
v8
v8
v8
o2
o2
o2
o2
n6.03
v8
v8
v8
v10
o2
o2
o2
o2
n7.25
v8
v10
v11
v11
C3
o54
6
o2
o2
n6.5
v3
v5
o2
o2
n8.95
v3
v7
o2
o2
n5.47
v5
v7
o2
o2
n4.47
v7
v10
o2
o2
n9.74
v9
v9
o2
o2
n2.24
v9
v10
C4
n0
C5
n0
C6
n0
C7
n0
C8
n0
C9
n0
C10
n0
C11
n0
O0 0
o54
90
o2
o2
n8.1
v3
v5
o2
o2
n7.07
v3
v7
o2
o2
n9.38
v5
v7
o2
o2
n6.57
v7
v10
o2
o2
n3
v9
v9
o2
o2
n6.26
v9
v10
o2
o2
o2
n1.57
v0
v1
v2
o2
o2
o2
n0.48
v0
v2
v10
o2
o2
o2
n1.83
v0
v5
v5
o2
o2
o2
n0.33
v0
v5
v11
o2
o2
o2
n7.4
v0
v7
v10
o2
o2
o2
n0.7
v0
v9
v10
o2
o2
o2
n4.13
v1
v3
v8
o2
o2
o2
n1.31
v1
v6
v7
o2
o2
o2
n2.28
v1
v7
v8
o2
o2
o2
n8.47
v2
v2
v7
o2
o2
o2
n4.44
v2
v9
v11
o2
o2
o2
n8.95
v6
v6
v11
o2
o2
o2
n3.31
v10
v10
v11
o2
o2
o2
o2
n2.7
v0
v0
v1
v11
o2
o2
o2
o2
n8.45
v0
v0
v7
v10
o2
o2
o2
o2
n5.86
v0
v1
v9
v9
o2
o2
o2
o2
n6
v0
v2
v2
v8
o2
o2
o2
o2
n0.71
v0
v2
v3
v7
o2
o2
o2
o2
n0.41
v0
v2
v5
v9
o2
o2
o2
o2
n4
v0
v2
v7
v11
o2
o2
o2
o2
n2.34
v0
v2
v8
v8
o2
o2
o2
o2
n0.37
v0
v3
v3
v7
o16
o2
o2
o2
o2
n1.71
v0
v3
v4
v7
o2
o2
o2
o2
n2.33
v0
v3
v5
v5
o2
o2
o2
o2
n10
v0
v3
v6
v7
o2
o2
o2
o2
n3.36
v0
v4
v4
v11
o2
o2
o2
o2
n0.81
v0
v4
v10
v11
o2
o2
o2
o2
n5.78
v0
v6
v6
v6
o2
o2
o2
o2
n2.87
v0
v6
v7
v8
o2
o2
o2
o2
n9.8
v0
v7
v8
v11
o2
o2
o2
o2
n4.37
v0
v9
v9
v11
o2
o2
o2
o2
n5.47
v1
v1
v1
v2
o2
o2
o2
o2
n2.83
v1
v1
v1
v8
o2
o2
o2
o2
n4.01
v1
v1
v2
v9
o2
o2
o2
o2
n9.57
v1
v2
v2
v2
o2
o2
o2
o2
n0.09
v1
v2
v4
v6
o2
o2
o2
o2
n2.7
v1
v2
v6
v10
o2
o2
o2
o2
n1.63
v1
v2
v8
v11
o2
o2
o2
o2
n7.84
v1
v2
v9
v10
o2
o2
o2
o2
n8.67
v1
v3
v6
v8
o2
o2
o2
o2
n0.57
v1
v3
v8
v10
o2
o2
o2
o2
n7.92
v1
v3
v11
v11
o2
o2
o2
o2
n9.67
v1
v4
v4
v11
o2
o2
o2
o2
n4.46
v1
v5
v5
v10
o2
o2
o2
o2
n5.24
v1
v5
v6
v8
o2
o2
o2
o2
n7.31
v1
v5
v7
v7
o16
o2
o2
o2
o2
n0.76
v1
v5
v11
v11
o2
o2
o2
o2
n0.18
v1
v8
v11
v11
o16
o2
o2
o2
o2
n3.05
v1
v9
v9
v11
o2
o2
o2
o2
n4.27
v2
v2
v3
v9
o2
o2
o2
o2
n9.42
v2
v2
v9
v11
o2
o2
o2
o2
n4.42
v2
v3
v7
v7
o2
o2
o2
o2
n5.82
v2
v3
v7
v9
o2
o2
o2
o2
n5.33
v2
v5
v6
v9
o2
o2
o2
o2
n5.2
v2
v5
v7
v7
o2
o2
o2
o2
n9.36
v3
v3
v3
v7
o2
o2
o2
o2
n0.14
v3
v3
v5
v11
o16
o2
o2
o2
o2
n2.44
v3
v3
v6
v7
o2
o2
o2
o2
n8.74
v3
v3
v8
v10
o2
o2
o2
o2
n9.72
v3
v5
v5
v8
o2
o2
o2
o2
n7.89
v4
v4
v6
v7
o2
o2
o2
o2
n7.49
v4
v4
v6
v8
o2
o2
o2
o2
n2.95
v4
v4
v7
v10
o2
o2
o2
o2
n2.93
v4
v4
v9
v9
o16
o2
o2
o2
o2
n7.97
v4
v7
v7
v7
o2
o2
o2
o2
n8.21
v4
v9
v9
v9
o2
o2
o2
o2
n5.36
v4
v9
v11
v11
o2
o2
o2
o2
n0.61
v5
v5
v5
v7
o2
o2
o2
o2
n9.31
v5
v5
v11
v11
o2
o2
o2
o2
n5.14
v5
v6
v8
v11
o2
o2
o2
o2
n1.76
v5
v7
v7
v9
o2
o2
o2
o2
n1.23
v5
v7
v8
v9
o2
o2
o2
o2
n5.17
v5
v8
v9
v10
o2
o2
o2
o2
n0.04
v5
v9
v9
v9
o2
o2
o2
o2
n1.1
v6
v7
v9
v9
o2
o2
o2
o2
n4.07
v6
v8
v8
v11
o2
o2
o2
o2
n8.59
v6
v8
v9
v11
o2
o2
o2
o2
n5.42
v7
v8
v8
v9
o2
o2
o2
o2
n1.58
v7
v8
v10
v10
o2
o2
o2
o2
n4.45
v7
v8
v10
v11
o2
o2
o2
o2
n9.19
v7
v9
v10
v11
o2
o2
o2
o2
n5.34
v8
v8
v8
v8
o2
o2
o2
o2
n8.1
v8
v8
v8
v10
o2
o2
o2
o2
n0.09
v8
v10
v11
v11
k11
8
20
28
36
45
56
65
74
82
91
100
J0 12
0 7.96
1 8.65
2 9.98
3 4.9
4 6.79
5 9.28
6 -7.56
7 3.25
8 6.89
9 9.93
10 7.91
11 4.41
J1 12
0 1.62
1 1.43
2 7.08
3 6.64
4 2.17
5 0.39
6 7.22
7 8.5
8 1.23
9 0.33
10 1.09
11 3.37
J2 12
0 7.42
1 5.91
2 2.81
3 5.3
4 3.63
5 3.77
6 3.93
7 2.71
8 1.5
9 1.27
10 9.38
11 2.1
J3 12
0 2.58
1 5.86
2 6.68
3 2.36
4 6.52
5 2.91
6 9.85
7 4.9
8 2.61
9 5.85
10 9.39
11 0.1
J4 6
0 5.56
1 3.71
2 6.67
5 1.31
6 7.88
9 0.83
J5 6
1 4.86
2 9.52
4 2.2
5 7.35
9 5.04
10 -2.6
J6 6
1 4.45
6 3.08
7 5.74
8 5.79
9 -0.37
11 6.89
J7 6
1 3.42
3 0.03
5 8.13
6 0.16
7 9.35
8 5.78
J8 6
1 8.55
3 1.33
4 3.99
5 -0.45
7 5.06
10 0.77
J9 6
0 7.15
1 6.22
4 -7.77
5 4.53
10 -4.4
11 -2.12
J10 12
0 8.55
1 8.18
2 0.06
3 6.13
4 0.48
5 0.8
6 6.52
7 8.14
8 2.08
9 6.49
10 1.37
11 7.27
J11 12
0 6.13
1 4.18
2 3.73
3 6.37
4 4.82
5 -0.69
6 6.81
7 5.34
8 9.47
9 -1.73
10 4
11 7.45
G0 12
0 3.31
1 9.37
2 -8.87
3 2.23
4 9.08
5 1.08
6 0.9
7 4.57
8 7.76
9 4.43
10 1.6
11 5.75
